NAME: bip_60_1
TYPE: TSP
COMMENT: bip_60_1
DIMENSION: 60
EDGE_WEIGHT_TYPE: EUC_2D
NODE_COORD_SECTION
1 68 29
2 38 24
3 47 93
4 11 35
5 16 59
6 54 33
7 31 13
8 62 46
9 76 27
10 28 76
11 88 77
12 82 88
13 46 66
14 56 2
15 99 67
16 97 12
17 11 9
18 59 24
19 48 86
20 9 13
21 12 39
22 52 69
23 20 71
24 68 63
25 88 37
26 62 85
27 66 53
28 93 74
29 80 11
30 4 62
31 452 409
32 471 403
33 491 484
34 408 423
35 489 428
36 455 459
37 415 470
38 496 476
39 434 425
40 438 485
41 473 461
42 479 402
43 457 412
44 440 458
45 422 425
46 482 460
47 472 455
48 433 498
49 475 402
50 466 454
51 432 406
52 406 445
53 419 496
54 449 482
55 435 487
56 441 422
57 433 430
58 444 451
59 489 466
60 470 477
